CMD:
./solvers/bin/cadical --plain --no-reduce -t 1600 ./data/cnfs//bobsmi2c/bobsmi2c.30.cnf

c --- [ banner ] -------------------------------------------------------------
c 
c CaDiCaL SAT Solver
c Copyright (c) 2016-2024
c A. Biere, M. Fleury, N. Froleyks, K. Fazekas, F. Pollitt, T. Faller
c JKU Linz, University of Freiburg, TU Wien
c 
c Version 2.1.3 5296d3d2a9bf48c154ab2acb5e44625776d821bf
c g++ (Gentoo 12.3.1_p20230526 p2) 12.3.1 20230526 -Wall -Wextra -O3 -DNDEBUG
c Sat Aug 9 07:26:21 PDT 2025 Linux cedar2.int.cedar.computecanada.ca 5.14.0-362.24.2.el9_3.x86_64 x86_64
c 
c --- [ limit ] --------------------------------------------------------------
c 
c setting time limit to 1600 seconds real time (due to '-t 1600')
c 
c --- [ parsing input ] ------------------------------------------------------
c 
c reading DIMACS file from './data/cnfs//bobsmi2c/bobsmi2c.30.cnf'
c opening file to read './data/cnfs//bobsmi2c/bobsmi2c.30.cnf'
c found 'p cnf 57302 169706' header
c parsed 169706 clauses in 0.03 seconds process time
c 
c --- [ options ] ------------------------------------------------------------
c 
c   --compact=false                (different from default 'true')
c   --decompose=false              (different from default 'true')
c   --deduplicate=false            (different from default 'true')
c   --elim=false                   (different from default 'true')
c   --probe=false                  (different from default 'true')
c   --reduce=false                 (different from default 'true')
c   --subsume=false                (different from default 'true')
c   --ternary=false                (different from default 'true')
c   --transred=false               (different from default 'true')
c   --vivify=false                 (different from default 'true')
c 
c --- [ solving ] ------------------------------------------------------------
c 
c time measured in process time since initialization
c 
c  seconds  reductions  redundant  irredundant
c         MB    restarts       trail       variables
c          level   conflicts       glue         remaining
c 
c *  0.03 29  0 0   0    0    0  0% 0 164145 52666 92%
c {  0.04 30  0 0   0    0    0  0% 0 164145 52666 92%
c i  0.05 30 60 0   2   51   48 14% 3 164145 52661 92%
c i  0.05 30 59 0   2   52   48 14% 3 164145 52616 92%
c i  0.05 30 58 0   2   53   48 14% 3 164145 52563 92%
c i  0.05 30 57 0   2   54   48 14% 3 164145 52330 91%
c i  0.05 30 54 0   2   57   50 13% 2 164145 52321 91%
c i  0.05 30 53 0   2   58   50 13% 2 164145 52312 91%
c i  0.05 30 52 0   2   59   50 13% 2 164145 52296 91%
c i  0.05 30 53 0   8  145  128 14% 3 164145 52247 91%
c i  0.10 31 88 0  56  490  443 27% 3 164145 52244 91%
c i  0.12 31 93 0  65  543  493 29% 4 164145 52213 91%
c i  0.12 31 91 0  67  564  513 29% 3 164145 52177 91%
c i  0.12 31 90 0  67  573  521 29% 3 164145 52165 91%
c i  0.16 31 88 0  86  836  758 30% 3 164145 51985 91%
c }  0.18 31 86 0  99 1000  910 32% 4 164145 51962 91%
c [  0.18 31  0 0  99 1000  910  0% 0 164145 51962 91%
c O  0.18 31 213 0  99 1004  914 56% 3 164145 51962 91%
c ]  0.28 31 382 0 100 3000 2751 68% 11 164145 51962 91%
c {  0.28 31 86 0 100 3000 2751 32% 4 164145 51962 91%
c 
c  seconds  reductions  redundant  irredundant
c         MB    restarts       trail       variables
c          level   conflicts       glue         remaining
c 
c F  0.28 31 87 0 100 3005 2756 32% 4 164145 51962 91%
c i  0.42 32 89 0 204 3974 3602 32% 4 164145 51950 91%
c i  0.63 32 88 0 397 5743 5186 31% 4 164145 51939 91%
c i  0.64 32 87 0 413 5827 5262 31% 4 164145 51928 91%
c #  0.65 32 85 0 420 6007 5418 30% 4 164145 51928 91%
c }  0.76 32 82 0 508 7000 6318 30% 4 164145 51928 91%
c [  0.76 32 382 0 508 7000 6318 68% 11 164145 51928 91%
c i  0.90 33 276 0 510 9376 8468 58% 11 164145 51913 91%
c I  0.94 33 273 0 510 10009 9060 56% 11 164145 51913 91%
c i  1.26 34 207 0 513 14124 12367 48% 10 164145 51912 91%
c ]  1.32 34 207 0 513 15000 13154 47% 10 164145 51912 91%
c {  1.32 34 82 0 513 15000 13154 30% 4 164145 51912 91%
c B  1.32 34 83 0 516 15013 13166 30% 4 164145 51912 91%
c i  1.35 34 82 0 539 15134 13273 30% 4 164145 51910 91%
c i  1.46 34 77 0 607 15988 14006 29% 4 164145 51909 91%
c i  1.54 34 77 0 672 16550 14498 29% 4 164145 51907 91%
c i  1.56 34 77 0 687 16669 14609 29% 4 164145 51898 91%
c i  1.59 34 76 0 696 16889 14799 29% 4 164145 51887 91%
c i  1.90 35 72 0 979 19403 17067 28% 4 164145 51885 91%
c W  2.18 36 70 0 1214 21014 16241 28% 4 153162 51885 91%
c 
c  seconds  reductions     redundant  irredundant
c         MB    restarts          trail       variables
c          level     conflicts        glue         remaining
c 
c i  2.30 36 71 0 1321 21623 16803 28% 4 153162 51876 91%
c i  2.88 36 66 0 1823 26745 21256 27% 4 153162 51865 91%
c F  3.04 36 65 0 1961 28015 22384 27% 5 153162 51865 91%
c }  3.46 36 64 0 2310 31000 24924 26% 5 153162 51865 91%
... skipped 117 lines ...
c  seconds    reductions        redundant    irredundant
c           MB     restarts             trail        variables
c            level       conflicts          glue          remaining
c 
c i 386.60 464 48 0 46719 1029735 888099 29% 11 151277 51504 90%
c # 394.19 470 48 0 47484 1035095 893009 29% 11 151277 51504 90%
c B 448.77 497 46 0 53054 1081096 933914 29% 12 151277 51504 90%
c i 452.43 499 46 0 53410 1085092 937456 29% 12 151277 51503 90%
c i 476.09 507 45 0 55485 1103895 954337 29% 12 151277 51494 90%
c i 476.09 507 45 0 55486 1103896 954337 29% 12 151277 51488 90%
c i 481.79 509 44 0 55898 1109811 958954 29% 12 151277 51486 90%
c W 503.74 761 43 0 57603 1128101 962656 30% 12 151102 51486 90%
c i 538.70 763 40 0 60589 1166314 994078 30% 12 151102 51469 90%
c F 547.38 763 39 0 61252 1176102 1002711 30% 12 151102 51469 90%
c B 599.93 763 39 0 65731 1225103 1045135 30% 13 151102 51469 90%
c i 602.83 763 38 0 65834 1233725 1051917 31% 12 151102 51466 90%
c W 650.34 788 39 0 69432 1275104 1057687 31% 13 150837 51466 90%
c i 656.98 788 39 0 69996 1280835 1062898 31% 13 150837 51465 90%
c # 706.45 788 39 0 73832 1326106 1103245 31% 13 150837 51465 90%
c B 764.27 789 43 0 77779 1378107 1151109 32% 13 150837 51465 90%
c W 831.38 832 43 0 82746 1431109 1198093 32% 14 150833 51465 90%
c i 864.39 832 45 0 85064 1462750 1227025 33% 14 150833 51456 90%
c i 882.21 832 45 0 86421 1477365 1240106 33% 14 150833 51455 90%
c F 890.96 832 44 0 87029 1485110 1246718 33% 14 150833 51455 90%
c 
c  seconds    reductions         redundant    irredundant
c           MB     restarts              trail        variables
c            level       conflicts           glue          remaining
c 
c B 952.43 832 46 0 91056 1540112 1295665 34% 14 150833 51455 90%
c W 1017.48 878 44 0 95032 1596114 1344419 34% 15 150794 51455 90%
c # 1083.34 878 41 0 99144 1653118 1392738 34% 15 150794 51455 90%
c B 1149.33 878 40 0 103118 1711122 1443367 33% 15 150794 51455 90%
c W 1216.25 878 40 0 106808 1770124 1495138 33% 15 150794 51455 90%
c F 1289.60 878 36 0 110968 1830127 1545098 32% 15 150794 51455 90%
c i 1322.15 878 35 0 112873 1856239 1566550 32% 15 150794 51454 90%
c B 1363.48 878 33 0 114950 1891130 1594560 32% 15 150794 51454 90%
c i 1375.97 879 32 0 115408 1904353 1604040 31% 14 150794 51420 90%
c W 1444.48 961 33 0 119359 1953134 1597474 31% 15 150653 51420 90%
c # 1511.44 961 31 0 123144 2016135 1647396 31% 14 150653 51420 90%
c } 1556.37 961 31 0 125995 2047007 1672624 31% 15 150653 51420 90%
c [ 1556.37 961 41 0 125995 2047007 1672624 39% 26 150653 51420 90%
c i 1558.01 961 40 0 125997 2048807 1673954 38% 26 150653 51408 90%
c I 1575.83 961 40 0 126010 2080136 1702191 38% 25 150653 51408 90%
c ] 1587.64 961 41 0 126018 2101460 1721580 38% 25 150653 51408 90%
c ? 1587.64 961 41 0 126018 2101460 1721580 38% 25 150653 51408 90%
c 
c --- [ result ] -------------------------------------------------------------
c 
c UNKNOWN
c 
c --- [ run-time profiling ] -------------------------------------------------
c 
c process time taken by individual solving procedures
c (percentage relative to process time for solving)
c 
c      1587.61  100.00% search
c      1319.42   83.11% unstable
c       264.06   16.63% stable
c         4.12    0.26% walk
c         0.03    0.00% parse
c         0.01    0.00% lucky
c         0.00    0.00% simplify
c   =================================
c      1587.61  100.00% solve
c 
c last line shows process time for solving
c (percentage relative to total process time)
c 
c --- [ statistics ] ---------------------------------------------------------
c 
c chronological:            599477        28.53 %  of conflicts
c conflicts:               2101460      1323.66    per second
c decisions:               9129972      5750.75    per second
c fixed:                      5892        10.28 %  of all variables
c learned:                 2037913        96.98 %  per conflict
c learned_lits:          356402588       100.00 %  learned literals
c minimized:                     0         0.00 %  learned literals
c shrunken:               98419967        27.61 %  learned literals
c minishrunken:          105545608        29.61 %  learned literals
c otfs:                       7159         0.34 %  of conflict
c propagations:         3939510676         2.48 M  per second
c rephased:                     64     32835.31    interval
c restarts:                 126018        16.68    interval
c stabilizing:                   6        35.04 %  of conflicts
c subsumed:                 191802         8.71 %  of all clauses
c strengthened:               7023         0.32 %  of all clauses
c walked:                       20    105073.00    interval
c 
c seconds are measured in process time for solving
c 
c --- [ resources ] ----------------------------------------------------------
c 
c total process time since initialization:      1587.64    seconds
c total real time since initialization:         1600.00    seconds
c maximum resident set size of process:         1401.00    MB
c 
c --- [ shutting down ] ------------------------------------------------------
c 
c exit 0
